Solver command line: ['C:\\Program Files\\IBM\\ILOG\\CPLEX_Studio2211\\cplex\\bin\\x64_win64\\cplex.exe']


Welcome to IBM(R) ILOG(R) CPLEX(R) Interactive Optimizer 22.1.1.0
  with Simplex, Mixed Integer & Barrier Optimizers
5725-A06 5725-A29 5724-Y48 5724-Y49 5724-Y54 5724-Y55 5655-Y21
Copyright IBM Corp. 1988, 2022.  All Rights Reserved.

Type 'help' for a list of available commands.
Type 'help' followed by a command name for more
information on commands.

CPLEX> Logfile 'cplex.log' closed.
Logfile 'C:\Users\wangy\Documents\GitHub\re_optimization\result_site_specific\tmpyoask2u3.cplex.log' open.
CPLEX> Problem 'C:\Users\wangy\Documents\GitHub\re_optimization\result_site_specific\tmphh3hy530.pyomo.lp' read.
Read time = 0.28 sec. (7.98 ticks)
CPLEX> Problem name         : C:\Users\wangy\Documents\GitHub\re_optimization\result_site_specific\tmphh3hy530.pyomo.lp
Objective sense      : Minimize
Variables            :   56997  [Nneg: 30685,  Free: 4406,  Binary: 6,
                                 Other: 21900]
Objective nonzeros   :      14
Linear constraints   :   78893  [Less: 42355,  Greater: 5,  Equal: 36533]
  Nonzeros           :  198720
  RHS nonzeros       :    3791

Variables            : Min LB: 0.000000         Max UB: 1.000000       
Objective nonzeros   : Min   : 1.000000         Max   : 1.000000       
Linear constraints   :
  Nonzeros           : Min   : 0.005254015      Max   : 100000.0       
  RHS nonzeros       : Min   : 0.03100000       Max   : 100000.0       
CPLEX> Version identifier: 22.1.1.0 | 2022-11-27 | 9160aff4d
Tried aggregator 3 times.
MIP Presolve eliminated 46450 rows and 26008 columns.
Aggregator did 10212 substitutions.
Reduced MIP has 22231 rows, 20777 columns, and 66556 nonzeros.
Reduced MIP has 2 binaries, 0 generals, 0 SOSs, and 0 indicators.
Presolve time = 0.20 sec. (205.60 ticks)
Found incumbent of value 241423.895717 after 0.30 sec. (305.14 ticks)
Probing time = 0.00 sec. (1.15 ticks)
Tried aggregator 1 time.
Detecting symmetries...
Reduced MIP has 22231 rows, 20777 columns, and 66556 nonzeros.
Reduced MIP has 2 binaries, 0 generals, 0 SOSs, and 0 indicators.
Presolve time = 0.03 sec. (43.08 ticks)
Probing time = 0.00 sec. (1.09 ticks)
MIP emphasis: balance optimality and feasibility.
MIP search method: dynamic search.
Parallel mode: deterministic, using up to 16 threads.
Root relaxation solution time = 1.11 sec. (712.81 ticks)

        Nodes                                         Cuts/
   Node  Left     Objective  IInf  Best Integer    Best Bound    ItCnt     Gap

*     0+    0                       241423.8957    -3400.7428           101.41%
      0     0     2930.8268     1   241423.8957     2930.8268       58   98.79%
*     0+    0                         3069.5046     2930.8268             4.52%
      0     0        cutoff           3069.5046                    232    0.00%
Elapsed time = 1.70 sec. (1351.86 ticks, tree = 0.01 MB, solutions = 2)

Root node processing (before b&c):
  Real time             =    1.72 sec. (1354.26 ticks)
Parallel b&c, 16 threads:
  Real time             =    0.00 sec. (0.00 ticks)
  Sync time (average)   =    0.00 sec.
  Wait time (average)   =    0.00 sec.
                          ------------
Total (root+branch&cut) =    1.72 sec. (1354.26 ticks)

Solution pool: 2 solutions saved.

MIP - Integer optimal solution:  Objective =  3.0695046220e+03
Solution time =    1.72 sec.  Iterations = 232  Nodes = 0
Deterministic time = 1354.42 ticks  (787.91 ticks/sec)

CPLEX> Incumbent solution written to file 'C:\Users\wangy\Documents\GitHub\re_optimization\result_site_specific\tmp3unoak05.cplex.sol'.
CPLEX> 
